proyfinal/src/viki/013/experimentInOfficeAgust.take6.output/2e456e7e-aec8-4e54-abba-e1f8c2d52fc5.als.out
Reading from standard input... Use '--help' for help.
============================[ Problem Statistics ]=============================
|                                                                             |
|  Number of variables:         87638                                         |
|  Number of clauses:          161767                                         |
|  Parse time:                   0.03 s                                       |
|                                                                             |
============================[ Search Statistics ]==============================
| Conflicts |          ORIGINAL         |          LEARNT          | Progress |
|           |    Vars  Clauses Literals |    Limit  Clauses Lit/Cl |          |
===============================================================================
|       100 |   63736   110073   275252 |    40360      100     12 | 27.274 % |
|       250 |   63736   110073   275252 |    44396      250     43 | 27.274 % |
|       475 |   63736   110073   275252 |    48835      475     62 | 27.274 % |
|       812 |   49953    70641   177996 |    53719      779     75 | 43.001 % |
|      1318 |   49946    70525   177725 |    59091     1229     69 | 43.009 % |
|      2077 |   49425    68945   173943 |    65000     1976     61 | 43.603 % |
|      3216 |   49188    67662   170857 |    71500     3091     61 | 43.874 % |
|      4924 |   48404    64968   164180 |    78650     4510     56 | 44.768 % |
|      7486 |   47902    62981   159282 |    86515     7030     56 | 45.341 % |
===============================================================================
restarts              : 46
conflicts             : 10914          (7841 /sec)
decisions             : 38254          (0.00 % random) (27482 /sec)
propagations          : 15387265       (11054189 /sec)
conflict literals     : 548605         (42.24 % deleted)
Memory used           : 30.97 MB
CPU time              : 1.39199 s

UNSATISFIABLE
